
******************************************************************************
This program contains Ipopt, a library for large-scale nonlinear optimization.
 Ipopt is released as open source code under the Eclipse Public License (EPL).
         For more information visit https://github.com/coin-or/Ipopt
******************************************************************************

This is Ipopt version 3.14.17, running with linear solver MUMPS 5.7.3.

Number of nonzeros in equality constraint Jacobian...:     2584
Number of nonzeros in inequality constraint Jacobian.:        0
Number of nonzeros in Lagrangian Hessian.............:     1178

Total number of variables............................:      565
                     variables with only lower bounds:      565
                variables with lower and upper bounds:        0
                     variables with only upper bounds:        0
Total number of equality constraints.................:      565
Total number of inequality constraints...............:        0
        inequality constraints with only lower bounds:        0
   inequality constraints with lower and upper bounds:        0
        inequality constraints with only upper bounds:        0

iter    objective    inf_pr   inf_du lg(mu)  ||d||  lg(rg) alpha_du alpha_pr  ls
   0 -1.5551864e+06 1.55e+03 1.12e+00  -1.0 0.00e+00    -  0.00e+00 0.00e+00   0
   1 -1.5551856e+06 1.54e+03 1.72e+02  -1.0 3.32e+03    -  9.51e-01 5.52e-03h  1
   2r-1.5551856e+06 1.54e+03 9.99e+02   3.2 0.00e+00    -  0.00e+00 3.56e-07R  5
   3r-1.5548456e+06 1.86e+01 1.08e+03   3.2 3.34e+06    -  2.78e-02 9.91e-04f  1
   4r-1.5450400e+06 1.29e+03 7.51e+02   3.2 3.00e+06    -  3.20e-01 3.17e-02f  1
   5r-1.0855620e+06 9.22e+05 1.04e+05   3.2 3.92e+06    -  2.07e-01 1.00e+00f  1
   6r-1.0836675e+06 5.53e+05 7.02e+04   3.2 8.68e+04  -4.0 5.01e-01 4.62e-01f  1
   7r-1.0579782e+06 5.30e+05 6.49e+04   3.2 3.57e+06    -  6.95e-01 8.69e-02f  1
   8r-6.4598616e+05 4.11e+06 7.92e+05   3.2 5.51e+06    -  8.94e-01 7.63e-01f  1
   9r-6.4581407e+05 1.03e+07 1.06e+08   3.2 1.07e+05  -4.5 6.51e-03 3.97e-01h  1
iter    objective    inf_pr   inf_du lg(mu)  ||d||  lg(rg) alpha_du alpha_pr  ls
  10r-6.4616288e+05 1.03e+07 1.06e+08   3.2 4.68e+06  -5.0 2.41e-03 3.68e-03h  1
  11r-6.4616107e+05 1.03e+07 1.06e+08   3.2 1.67e+06  -2.7 5.47e-04 6.61e-04h  1
  12r-6.4615928e+05 1.03e+07 1.05e+08   3.2 2.53e+05  -2.3 2.72e-04 3.32e-03h  1
  13r-6.4615811e+05 1.02e+07 1.05e+08   3.2 5.64e+03   1.7 3.44e-03 4.72e-03h  1
  14r-6.4615738e+05 1.02e+07 1.05e+08   3.2 4.83e+03   2.2 1.46e-03 4.29e-03h  1
  15r-6.4615521e+05 1.01e+07 1.05e+08   3.2 7.87e+03   1.7 4.74e-03 8.92e-03h  1
  16r-6.4615371e+05 1.01e+07 1.05e+08   3.2 3.48e+04   1.2 1.23e-03 5.15e-03h  1
  17r-6.4614570e+05 9.80e+06 1.03e+08   3.2 4.64e+03   1.6 1.08e-02 3.46e-02h  1
  18r-6.4614360e+05 9.63e+06 1.03e+08   3.2 3.54e+04   1.2 3.08e-03 7.65e-03h  1
  19r-6.4612278e+05 8.92e+06 9.79e+07   3.2 4.29e+03   1.6 2.75e-02 1.02e-01h  1
iter    objective    inf_pr   inf_du lg(mu)  ||d||  lg(rg) alpha_du alpha_pr  ls
  20r-6.4612158e+05 8.61e+06 9.80e+07   3.2 7.98e+04   1.1 6.93e-03 5.95e-03h  1
  21r-6.4609564e+05 7.34e+06 8.95e+07   3.2 4.64e+03   1.5 7.08e-02 1.81e-01h  1
  22r-6.4608680e+05 6.45e+06 8.07e+07   3.2 3.11e+03   2.0 1.14e-01 1.13e-01h  1
  23r-6.4605815e+05 4.58e+06 6.71e+07   3.2 3.94e+03   1.5 3.31e-01 3.27e-01h  1
  24r-6.4604759e+05 3.29e+06 5.43e+07   3.2 1.86e+03   1.9 8.14e-01 2.25e-01h  1
  25r-6.4599091e+05 3.25e+06 2.98e+07   3.2 2.78e+03   1.4 1.00e+00 1.00e+00h  1
  26r-6.4598831e+05 3.36e+06 2.40e+07   3.2 3.58e+03   1.9 1.00e+00 2.46e-01h  1
  27r-6.4598831e+05 3.36e+06 2.40e+07   3.2 3.44e+03   5.0 7.63e-04 1.64e-04h  1
  28r-6.4598831e+05 3.36e+06 2.39e+07   3.2 4.25e+03   4.5 1.99e-05 3.67e-03f  1
  29r-6.4598821e+05 3.36e+06 2.99e+07   3.2 2.28e+03   4.0 5.16e-04 1.00e+00f  1
iter    objective    inf_pr   inf_du lg(mu)  ||d||  lg(rg) alpha_du alpha_pr  ls
  30r-6.4598795e+05 3.36e+06 3.75e+03   3.2 8.67e-01   3.6 1.00e+00 1.00e+00f  1
  31r-6.4598756e+05 3.36e+06 1.01e+03   1.1 8.22e-01   3.1 9.87e-01 1.00e+00f  1
  32r-6.4598660e+05 3.36e+06 1.00e+03   1.1 2.46e+00   2.6 1.00e+00 5.74e-01f  1
  33r-6.4598479e+05 3.36e+06 1.00e+03   1.1 7.37e+00   2.1 4.58e-01 2.76e-01f  1
  34r-6.4598090e+05 3.36e+06 1.00e+03   1.1 2.21e+01   1.7 5.39e-01 1.98e-01f  1
  35r-6.4597066e+05 3.35e+06 1.00e+03   1.1 6.64e+01   1.2 3.43e-01 1.82e-01f  1
  36r-6.4596329e+05 3.35e+06 1.00e+03   1.1 1.99e+02   0.7 9.48e-02 4.63e-02f  1
  37r-6.4595736e+05 3.34e+06 1.00e+03   1.1 5.97e+02   0.2 9.95e-02 1.33e-02f  1
  38r-6.4593986e+05 3.33e+06 1.00e+03   1.1 1.79e+03  -0.3 6.54e-02 1.54e-02f  1
  39r-6.4592228e+05 3.31e+06 1.00e+03   1.1 5.38e+03  -0.7 2.62e-02 6.82e-03f  1
iter    objective    inf_pr   inf_du lg(mu)  ||d||  lg(rg) alpha_du alpha_pr  ls
  40r-6.4589726e+05 3.28e+06 1.00e+03   1.1 1.61e+04  -1.2 3.52e-03 4.02e-03f  1
  41r-6.4586632e+05 3.24e+06 1.00e+03   1.1 4.83e+04  -1.7 4.40e-04 1.82e-03f  1
  42r-6.4583886e+05 3.20e+06 1.00e+03   1.1 1.45e+05  -2.2 4.17e-03 6.28e-04f  1
  43r-6.4579466e+05 3.06e+06 1.00e+03   1.1 4.34e+05  -2.6 1.52e-03 6.68e-04f  1
  44r-6.4577275e+05 2.85e+06 1.00e+03   1.1 1.29e+06  -3.1 1.23e-03 3.55e-04f  1
  45r-6.4574871e+05 2.42e+06 1.00e+03   1.1 3.79e+06  -3.6 5.05e-04 2.38e-04f  1
  46r-6.4574412e+05 2.03e+06 1.00e+03   1.1 1.41e+07  -4.1 1.64e-03 5.85e-05f  1
  47r-6.4575358e+05 1.11e+06 1.07e+04   1.1 5.68e+06  -3.6 2.05e-03 5.78e-04f  1
  48r-6.4575132e+05 1.11e+06 1.08e+04   1.1 5.05e+04  -1.4 6.32e-02 1.39e-03f  1
  49r-6.4575337e+05 1.05e+06 1.46e+04   1.1 1.25e+04  -1.0 1.58e-01 2.28e-02f  1
iter    objective    inf_pr   inf_du lg(mu)  ||d||  lg(rg) alpha_du alpha_pr  ls
  50r-6.4575840e+05 9.20e+05 2.68e+04   1.1 4.82e+03  -0.6 8.51e-02 5.63e-02f  1
  51r-6.4576005e+05 8.89e+05 8.47e+04   1.1 2.61e+03  -0.1 6.76e-03 9.45e-02f  1
  52r-6.4575794e+05 8.59e+05 6.93e+04   1.1 7.66e+01   1.2 9.40e-01 1.64e-01f  1
  53r-6.4575805e+05 8.47e+05 6.61e+04   1.1 3.92e+02   0.7 5.37e-01 5.82e-02f  1
  54r-6.4575801e+05 8.43e+05 6.41e+04   1.1 9.02e+01   1.1 5.50e-01 2.94e-02f  1
  55r-6.4575863e+05 8.17e+05 7.68e+04   1.1 5.53e+02   0.7 2.12e-01 1.44e-01f  1
  56r-6.4575863e+05 8.17e+05 7.67e+04   1.1 4.29e+02   0.2 4.32e-01 1.13e-03f  1
  57r-6.4575795e+05 7.96e+05 7.07e+04   1.1 1.23e+02  -0.3 4.50e-01 1.23e-01f  1
  58r-6.4575752e+05 7.88e+05 6.73e+04   1.1 2.83e+02  -0.8 3.15e-01 5.74e-02f  1
  59r-6.4575670e+05 7.61e+05 5.98e+04   1.1 8.64e+02  -1.2 5.99e-02 2.11e-01f  1
iter    objective    inf_pr   inf_du lg(mu)  ||d||  lg(rg) alpha_du alpha_pr  ls
  60r-6.4575703e+05 7.60e+05 5.92e+04   1.1 2.58e+03  -1.7 1.58e-01 9.92e-03f  1
  61r-6.4576223e+05 7.57e+05 5.74e+04   1.1 7.36e+03  -2.2 9.39e-02 3.09e-02f  1
  62r-6.4576132e+05 7.57e+05 5.72e+04   1.1 6.17e+03  -2.7 4.96e-02 3.87e-03f  1
  63r-6.4574636e+05 7.55e+05 5.56e+04   1.1 9.85e+03  -3.1 8.93e-02 2.39e-02f  1
  64r-6.4567462e+05 7.51e+05 5.34e+04   1.1 1.08e+04  -3.6 5.42e-01 4.44e-02f  1
  65r-6.4558507e+05 7.49e+05 5.17e+04   1.1 3.12e+04  -4.1 2.09e-01 3.34e-02f  1
  66r-6.4544971e+05 7.49e+05 5.04e+04   1.1 8.95e+04  -4.6 3.48e-01 2.50e-02f  1
  67r-6.4515064e+05 7.52e+05 4.91e+04   1.1 2.24e+05  -5.1 1.85e-01 2.84e-02f  1
  68r-6.4476217e+05 7.54e+05 4.83e+04   1.1 4.57e+05  -5.5 2.92e-01 1.54e-02f  1
  69r-6.4453434e+05 7.53e+05 4.81e+04   1.1 1.61e+05  -6.0 3.93e-01 5.33e-03f  1
iter    objective    inf_pr   inf_du lg(mu)  ||d||  lg(rg) alpha_du alpha_pr  ls
  70r-6.3681424e+05 7.07e+05 4.47e+04   1.1 4.43e+05  -6.5 6.91e-01 7.05e-02f  1
  71r-6.3072768e+05 6.18e+05 4.11e+04   1.1 2.38e+05  -7.0 3.57e-01 7.88e-02f  1
  72r-5.6878619e+05 7.43e+05 3.00e+04   1.1 7.40e+05  -7.4 1.00e+00 2.62e-01f  1
  73r-5.6920481e+05 7.42e+05 2.98e+04   1.1 5.90e+05  -7.9 7.08e-01 8.00e-03f  1
  74r-5.8480331e+05 7.01e+05 1.95e+04   1.1 3.19e+05  -7.5 1.00e+00 3.36e-01f  1
  75r-6.4737430e+05 4.94e+05 1.10e+04   1.1 7.07e+05  -8.0 2.65e-01 4.47e-01f  1
  76r-6.9385293e+05 3.25e+05 9.62e+03   1.1 1.32e+06  -8.4 1.28e-01 1.27e-01f  1
  77r-7.3969243e+05 1.56e+05 8.82e+03   1.1 5.22e+07  -8.9 1.37e-02 5.89e-03f  1
  78r-7.5895113e+05 6.55e+04 8.29e+03   1.1 1.51e+06  -8.5 4.42e-01 6.04e-02f  1
  79r-7.7343492e+05 5.28e+04 8.04e+03   1.1 3.08e+06  -9.0 1.28e-01 2.99e-02f  1
iter    objective    inf_pr   inf_du lg(mu)  ||d||  lg(rg) alpha_du alpha_pr  ls
  80r-7.7216523e+05 1.37e+05 7.32e+03   1.1 4.78e+06  -9.5 2.34e-02 8.74e-02f  1
  81r-7.7158052e+05 1.23e+05 7.80e+03   1.1 1.19e+06  -9.0 1.56e-01 1.01e-01f  1
  82r-7.7277281e+05 1.15e+05 7.55e+03   1.1 6.82e+05  -8.6 1.29e-01 6.19e-02f  1
  83r-7.7608444e+05 9.35e+04 6.83e+03   1.1 5.81e+05  -8.2 4.44e-01 1.89e-01f  1
  84r-7.7961489e+05 7.82e+04 8.14e+03   1.1 1.01e+06    -  1.10e-01 1.64e-01f  1
  85r-7.8624264e+05 6.56e+04 7.51e+03   1.1 4.50e+05  -8.7 2.43e-01 1.61e-01f  1
  86r-7.9458179e+05 5.25e+04 1.06e+04   1.1 7.55e+05  -9.1 6.24e-02 2.00e-01f  1
  87r-7.9514149e+05 5.16e+04 1.06e+04   1.1 2.09e+06  -9.6 1.93e-01 1.66e-02f  1
  88r-8.0131547e+05 4.24e+04 9.72e+03   1.1 7.27e+05    -  1.28e-01 1.78e-01f  1
  89r-8.0623587e+05 3.47e+04 8.16e+03   1.1 6.95e+05    -  1.38e-01 1.81e-01f  1
iter    objective    inf_pr   inf_du lg(mu)  ||d||  lg(rg) alpha_du alpha_pr  ls
  90r-8.1037392e+05 2.88e+04 6.81e+03   1.1 8.88e+05    -  1.50e-01 1.72e-01f  1
  91r-8.1119930e+05 2.30e+04 5.49e+03   1.1 3.96e+05  -9.2 1.86e-01 1.99e-01f  1
  92r-8.1234150e+05 1.69e+04 4.53e+03   1.1 5.82e+05  -9.7 2.76e-01 2.65e-01f  1
  93r-8.1362262e+05 1.50e+04 4.11e+03   1.1 5.70e+05    -  3.09e-01 1.12e-01f  1
  94r-8.1543598e+05 1.81e+04 3.82e+03   1.1 6.41e+05    -  1.00e+00 3.10e-01f  1
  95r-8.1903174e+05 1.40e+04 3.40e+03   1.1 3.15e+05    -  5.23e-01 2.37e-01f  1
  96r-8.2949481e+05 1.19e+04 4.34e+03   1.1 3.85e+05    -  3.81e-01 5.46e-01f  1
  97r-8.5166415e+05 1.53e+04 3.53e+03   1.1 4.35e+05    -  5.27e-01 6.87e-01f  1
  98r-8.5162276e+05 6.14e+03 1.40e+03   1.1 3.66e+03  -4.7 5.94e-01 5.99e-01f  1
  99r-8.5157348e+05 5.73e+03 1.31e+03   1.1 2.86e+04  -5.2 3.99e-01 6.80e-02f  1
iter    objective    inf_pr   inf_du lg(mu)  ||d||  lg(rg) alpha_du alpha_pr  ls
 100r-8.6802891e+05 5.99e+03 1.15e+03   1.1 1.08e+06    -  7.80e-02 1.16e-01f  1
 101r-8.8324887e+05 5.41e+03 9.92e+02   1.1 6.97e+05    -  1.82e-01 1.64e-01f  1
 102r-8.8332898e+05 3.16e+03 5.57e+02   1.1 7.20e+03  -5.7 1.00e+00 4.82e-01f  1
 103r-8.9539646e+05 3.09e+03 1.43e+03   1.1 9.48e+05    -  1.00e+00 8.70e-02f  1
 104r-9.9202141e+05 5.48e+04 3.45e+02   1.1 9.86e+05    -  6.27e-01 7.64e-01f  1
 105r-1.1076658e+06 3.76e+04 3.43e+02   1.1 1.14e+06    -  1.00e+00 4.53e-01f  1
 106r-1.2351498e+06 5.38e+04 4.26e+02   1.1 1.05e+06    -  1.00e+00 5.67e-01f  1
 107r-1.3835534e+06 1.41e+05 2.04e+02   1.1 9.53e+05    -  1.00e+00 7.74e-01f  1
 108r-1.4341443e+06 1.81e+05 6.05e+02   1.1 2.14e+06    -  1.00e+00 5.87e-01f  1
 109r-1.4596350e+06 2.04e+05 8.22e+01   1.1 1.26e+06    -  1.00e+00 5.83e-01f  1
iter    objective    inf_pr   inf_du lg(mu)  ||d||  lg(rg) alpha_du alpha_pr  ls
 110r-1.4605748e+06 4.24e+04 2.21e+01   1.1 5.87e+05    -  1.00e+00 1.00e+00f  1
 111r-1.4508303e+06 2.11e+03 2.37e+00   1.1 6.68e+04    -  1.00e+00 1.00e+00h  1
 112r-1.4523674e+06 2.09e+03 1.04e+00   1.1 3.16e+04    -  1.00e+00 1.00e+00h  1
 113r-1.4524195e+06 8.31e+01 3.64e-02   1.1 9.84e+02    -  1.00e+00 1.00e+00h  1
 114r-1.5303251e+06 1.11e+05 3.12e+02  -1.0 4.00e+06    -  5.37e-01 2.40e-01f  1
 115r-1.5298414e+06 2.21e+04 8.10e+01  -1.0 8.69e+03  -6.1 8.73e-01 8.15e-01f  1
 116r-1.5299760e+06 6.23e+03 1.45e+02  -1.0 2.12e+03  -6.6 9.39e-01 7.20e-01f  1
 117r-1.5304636e+06 2.25e+03 2.04e+02  -1.0 3.01e+03  -7.1 9.17e-01 6.40e-01f  1
 118r-1.5309668e+06 1.14e+03 3.21e+02  -1.0 8.73e+03  -7.6 9.61e-01 4.91e-01f  1
 119r-1.5313668e+06 6.64e+02 3.62e+02  -1.0 2.35e+04  -8.1 1.00e+00 4.21e-01f  1
iter    objective    inf_pr   inf_du lg(mu)  ||d||  lg(rg) alpha_du alpha_pr  ls
 120r-1.5326224e+06 5.01e+02 2.66e+02  -1.0 5.95e+04  -8.5 1.00e+00 2.50e-01f  1
 121r-1.5350442e+06 8.30e+02 3.85e+02  -1.0 1.30e+05  -9.0 6.26e-01 2.18e-01f  1
 122r-1.5401788e+06 3.93e+03 7.37e+02  -1.0 6.30e+05  -9.5 1.00e+00 1.38e-01f  1
 123r-1.5433316e+06 4.52e+03 6.80e+02  -1.0 2.03e+05  -9.1 1.00e+00 2.18e-01f  1
 124r-1.5470459e+06 3.94e+03 2.99e+02  -1.0 7.16e+04  -8.6 1.00e+00 7.00e-01h  1
 125r-1.5491749e+06 9.29e+03 2.27e+02  -1.0 1.15e+06  -9.1 2.62e-01 5.79e-02f  1
 126r-1.5502824e+06 8.89e+03 6.49e+02  -1.0 4.30e+05  -9.6 7.93e-01 4.37e-02h  1
 127r-1.5534779e+06 8.39e+03 7.88e+02  -1.0 8.00e+05 -10.1 9.56e-01 5.66e-02f  1
 128r-1.5645938e+06 7.53e+03 7.01e+02  -1.0 1.77e+06 -10.5 1.77e-01 1.01e-01f  1
 129r-1.5764871e+06 6.08e+03 5.56e+02  -1.0 7.82e+05 -10.1 1.00e+00 1.90e-01f  1
iter    objective    inf_pr   inf_du lg(mu)  ||d||  lg(rg) alpha_du alpha_pr  ls
 130r-1.5948611e+06 2.54e+04 4.15e+02  -1.0 1.85e+06 -10.6 4.33e-01 2.30e-01f  1
 131r-1.5956199e+06 2.49e+04 7.00e+02  -1.0 4.35e+05 -10.2 6.20e-01 1.92e-02h  1
 132r-1.5939294e+06 2.04e+04 7.84e+02  -1.0 7.14e+05 -10.6 3.28e-01 1.76e-01h  1
 133r-1.5959122e+06 1.25e+04 9.03e+02  -1.0 1.93e+05 -10.2 7.93e-01 3.83e-01h  1
 134r-1.6009537e+06 9.08e+04 4.07e+02  -1.0 9.33e+05 -10.7 4.65e-02 4.68e-01h  1
 135r-1.6002113e+06 8.75e+04 3.76e+02  -1.0 9.44e+05 -10.3 6.91e-01 5.22e-02h  1
 136r-1.5970558e+06 4.11e+04 1.50e+02  -1.0 2.41e+05  -9.8 1.00e+00 5.92e-01h  1
 137r-1.5926620e+06 1.83e+05 1.43e+02  -1.0 5.77e+05 -10.3 6.11e-01 1.00e+00h  1
 138r-1.5685886e+06 1.39e+06 1.06e+02  -1.0 2.85e+07    -  1.39e-01 8.61e-02f  1
 139r-1.5680276e+06 1.38e+06 7.63e+02  -1.0 5.47e+06    -  1.00e+00 6.37e-03h  1
iter    objective    inf_pr   inf_du lg(mu)  ||d||  lg(rg) alpha_du alpha_pr  ls
 140r-1.5589709e+06 5.15e+05 6.27e+02  -1.0 4.81e+05    -  1.00e+00 6.48e-01h  1
 141r-1.5552787e+06 7.39e+04 6.19e+01  -1.0 1.51e+05    -  1.00e+00 8.80e-01h  1
 142r-1.5552576e+06 2.55e+04 2.79e+02  -1.0 2.02e+04    -  1.00e+00 6.59e-01h  1
 143r-1.5551058e+06 4.90e+01 5.91e-02  -1.0 6.18e+03    -  1.00e+00 1.00e+00h  1
 144r-1.5551075e+06 1.85e-01 1.13e-04  -1.0 2.69e+02    -  1.00e+00 1.00e+00h  1
 145r-1.5550286e+06 2.76e+01 3.75e+01  -2.6 6.71e+03    -  1.00e+00 8.02e-01f  1
 146r-1.5550468e+06 3.35e+00 9.21e+00  -2.6 9.59e+02    -  1.00e+00 9.54e-01f  1
 147r-1.5550481e+06 4.64e-01 3.00e-03  -2.6 2.00e+02    -  1.00e+00 1.00e+00h  1
 148r-1.5550475e+06 1.32e-03 1.20e-05  -2.6 1.24e+01    -  1.00e+00 1.00e+00h  1
 149r-1.5550455e+06 6.92e-03 3.68e+01  -5.8 1.08e+02    -  1.00e+00 8.64e-01f  1
iter    objective    inf_pr   inf_du lg(mu)  ||d||  lg(rg) alpha_du alpha_pr  ls
 150r-1.5550434e+06 5.69e-03 1.07e+01  -5.8 1.03e+02    -  6.96e-01 9.90e-01f  1
 151r-1.5550430e+06 5.72e-05 6.57e-05  -5.8 5.03e+00    -  1.00e+00 1.00e+00h  1
 152r-1.5550430e+06 2.28e-04 3.13e-06  -5.8 3.65e-02    -  1.00e+00 1.00e+00h  1
 153r-1.5550430e+06 1.70e-05 4.82e-08  -5.8 3.28e-03    -  1.00e+00 1.00e+00h  1
 154r-1.5550430e+06 1.71e-05 1.40e+01  -7.0 2.05e-01    -  1.00e+00 8.98e-01h  1
 155r-1.5550430e+06 7.04e-04 2.88e-06  -7.0 6.42e-02    -  1.00e+00 1.00e+00f  1
 156r-1.5550430e+06 1.71e-05 2.64e-09  -7.0 3.46e-03    -  1.00e+00 1.00e+00h  1
 157r-1.5550430e+06 1.71e-05 1.18e-12  -7.0 6.39e-06    -  1.00e+00 1.00e+00h  1
 158r-1.5550430e+06 1.71e-05 2.86e-05  -9.0 1.11e-02    -  1.00e+00 1.00e+00h  1
 159r-1.5550430e+06 3.73e-03 2.70e-05  -9.0 1.48e-01    -  1.00e+00 1.00e+00h  1
iter    objective    inf_pr   inf_du lg(mu)  ||d||  lg(rg) alpha_du alpha_pr  ls
 160r-1.5550430e+06 2.10e-04 2.54e-07  -9.0 3.51e-02    -  1.00e+00 1.00e+00h  1
 161r-1.5550430e+06 1.71e-05 5.85e-10  -9.0 3.20e-03    -  1.00e+00 1.00e+00h  1

Number of Iterations....: 161

                                   (scaled)                 (unscaled)
Objective...............:  -1.5550430050558029e+06   -1.5550430050558029e+06
Dual infeasibility......:   1.1737181122537134e-01    1.1737181122537134e-01
Constraint violation....:   1.7058468732627065e-05    1.7058468732627065e-05
Variable bound violation:   0.0000000000000000e+00    0.0000000000000000e+00
Complementarity.........:   9.0909090909090931e-10    9.0909090909090931e-10
Overall NLP error.......:   1.1737181122537134e-01    1.1737181122537134e-01


Number of objective function evaluations             = 168
Number of objective gradient evaluations             = 4
Number of equality constraint evaluations            = 168
Number of inequality constraint evaluations          = 0
Number of equality constraint Jacobian evaluations   = 164
Number of inequality constraint Jacobian evaluations = 0
Number of Lagrangian Hessian evaluations             = 162
Total seconds in IPOPT                               = 1.180

EXIT: Converged to a point of local infeasibility. Problem may be infeasible.
